
-9.0
-8.6
-8.3
-8.1
-7.9
-6.6
-5.7
-4.7
-3.0
-1.9
-1.5
-1.4
-1.1
-1.0
-1.0
-1.0
-1.0
-1.0
-1.0
-1.0
-1.0
-1.0
-1.0
-1.0
-1.0
-1.0
-1.0
-1.0
-1.0
-8.85
-8.5
-8.4
-8.05
-7.6
-7.15
-6.2
-5.05
-3.3
-1.95
-1.65
-1.5
-1.35
-1.25
-1.15
-1.05
-1.05
-1.05
-1.05
-1.05
-1.0
-0.95
-0.95
-0.95
-0.95
-0.95
-0.95
-0.95
-0.95
-0.95
-8.85
-8.65
-8.35
-8.05
-7.65
-7.2
-6.3
-4.8
-3.45
-2.05
-1.55
-1.4
-1.2
-1.1
-1.05
-1.05
-1.0
-1.0
-1.0
-1.0
-1.0
-1.0
-1.0
-1.0
-1.0
-1.0
-1.0
-1.0
-1.0
-1.0